(declare-sort Loc 0)
(declare-const l0 Loc)
(declare-const l1 Loc)
(declare-const l2 Loc)
(declare-const l3 Loc)
(declare-const l4 Loc)
(declare-const l5 Loc)
(declare-const l6 Loc)
(declare-const l7 Loc)
(declare-const l9 Loc)
(declare-const l8 Loc)
(declare-const l11 Loc)
(declare-const l10 Loc)
(declare-const l12 Loc)
(declare-const l13 Loc)
(declare-const l14 Loc)
(declare-const l15 Loc)
(declare-const l16 Loc)
(declare-const l17 Loc)
(declare-const l18 Loc)
(declare-const l19 Loc)
(assert (distinct l0 l1 l2 l3 l4 l5 l6 l7 l9 l8 l11 l10 l12 l13 l14 l15 l16 l17 l18 l19))

(define-fun cfg_init ( (pc Loc) (src Loc) (rel Bool) ) Bool
  (and (= pc src) rel))

(define-fun cfg_trans2 ( (pc Loc) (src Loc)
                         (pc1 Loc) (dst Loc)
                         (rel Bool) ) Bool
  (and (= pc src) (= pc1 dst) rel))

(define-fun cfg_trans3 ( (pc Loc) (exit Loc)
                         (pc1 Loc) (call Loc)
                         (pc2 Loc) (return Loc)
                         (rel Bool) ) Bool
  (and (= pc exit) (= pc1 call) (= pc2 return) rel))

(define-fun init_main ( (pc^0 Loc) (Result_5^0 Int) (__cil_tmp5_10^0 Int) (__cil_tmp5_15^0 Int) (__cil_tmp5_20^0 Int) (__disjvr_0^0 Int) (__disjvr_1^0 Int) (__disjvr_2^0 Int) (__disjvr_3^0 Int) (a_6^0 Int) (buffer_1077^0 Int) (buffer_1139^0 Int) (buffer_21^0 Int) (buffer_35^0 Int) (buffer_604^0 Int) (cand_1104^0 Int) (cand_19^0 Int) (d_7^0 Int) (elem_13^0 Int) (h_17^0 Int) (i_22^0 Int) (l_11^0 Int) (len_98^0 Int) (lt_29^0 Int) (prev_14^0 Int) (ret_1103^0 Int) (ret_18^0 Int) (sz_23^0 Int) (tmp_24^0 Int) (tmp_9^0 Int) (tmp___0_25^0 Int) (tmp___0_36^0 Int) (tmp___0_57^0 Int) (tmp___0_605^0 Int) (x_12^0 Int) (x_16^0 Int) (x_8^0 Int) (y_1094^0 Int) ) Bool
  (cfg_init pc^0 l19 true))

(define-fun next_main (
                 (pc^0 Loc) (Result_5^0 Int) (__cil_tmp5_10^0 Int) (__cil_tmp5_15^0 Int) (__cil_tmp5_20^0 Int) (__disjvr_0^0 Int) (__disjvr_1^0 Int) (__disjvr_2^0 Int) (__disjvr_3^0 Int) (a_6^0 Int) (buffer_1077^0 Int) (buffer_1139^0 Int) (buffer_21^0 Int) (buffer_35^0 Int) (buffer_604^0 Int) (cand_1104^0 Int) (cand_19^0 Int) (d_7^0 Int) (elem_13^0 Int) (h_17^0 Int) (i_22^0 Int) (l_11^0 Int) (len_98^0 Int) (lt_29^0 Int) (prev_14^0 Int) (ret_1103^0 Int) (ret_18^0 Int) (sz_23^0 Int) (tmp_24^0 Int) (tmp_9^0 Int) (tmp___0_25^0 Int) (tmp___0_36^0 Int) (tmp___0_57^0 Int) (tmp___0_605^0 Int) (x_12^0 Int) (x_16^0 Int) (x_8^0 Int) (y_1094^0 Int)
                 (pc^post Loc) (Result_5^post Int) (__cil_tmp5_10^post Int) (__cil_tmp5_15^post Int) (__cil_tmp5_20^post Int) (__disjvr_0^post Int) (__disjvr_1^post Int) (__disjvr_2^post Int) (__disjvr_3^post Int) (a_6^post Int) (buffer_1077^post Int) (buffer_1139^post Int) (buffer_21^post Int) (buffer_35^post Int) (buffer_604^post Int) (cand_1104^post Int) (cand_19^post Int) (d_7^post Int) (elem_13^post Int) (h_17^post Int) (i_22^post Int) (l_11^post Int) (len_98^post Int) (lt_29^post Int) (prev_14^post Int) (ret_1103^post Int) (ret_18^post Int) (sz_23^post Int) (tmp_24^post Int) (tmp_9^post Int) (tmp___0_25^post Int) (tmp___0_36^post Int) (tmp___0_57^post Int) (tmp___0_605^post Int) (x_12^post Int) (x_16^post Int) (x_8^post Int) (y_1094^post Int)
             ) Bool
  (or
    (cfg_trans2 pc^0 l0 pc^post l1 (and (and (and (and (and (and (and (and (and (and (and (and (and (and (and (and (and (and (and (and (and (and (and (and (and (and (and (and (and (and (and (and (and (and (and (and (and (= __disjvr_0^post __disjvr_0^0) (= Result_5^0 Result_5^post)) (= __cil_tmp5_10^0 __cil_tmp5_10^post)) (= __cil_tmp5_15^0 __cil_tmp5_15^post)) (= __cil_tmp5_20^0 __cil_tmp5_20^post)) (= __disjvr_0^0 __disjvr_0^post)) (= __disjvr_1^0 __disjvr_1^post)) (= __disjvr_2^0 __disjvr_2^post)) (= __disjvr_3^0 __disjvr_3^post)) (= a_6^0 a_6^post)) (= buffer_1077^0 buffer_1077^post)) (= buffer_1139^0 buffer_1139^post)) (= buffer_21^0 buffer_21^post)) (= buffer_35^0 buffer_35^post)) (= buffer_604^0 buffer_604^post)) (= cand_1104^0 cand_1104^post)) (= cand_19^0 cand_19^post)) (= d_7^0 d_7^post)) (= elem_13^0 elem_13^post)) (= h_17^0 h_17^post)) (= i_22^0 i_22^post)) (= l_11^0 l_11^post)) (= len_98^0 len_98^post)) (= lt_29^0 lt_29^post)) (= prev_14^0 prev_14^post)) (= ret_1103^0 ret_1103^post)) (= ret_18^0 ret_18^post)) (= sz_23^0 sz_23^post)) (= tmp_24^0 tmp_24^post)) (= tmp_9^0 tmp_9^post)) (= tmp___0_25^0 tmp___0_25^post)) (= tmp___0_36^0 tmp___0_36^post)) (= tmp___0_57^0 tmp___0_57^post)) (= tmp___0_605^0 tmp___0_605^post)) (= x_12^0 x_12^post)) (= x_16^0 x_16^post)) (= x_8^0 x_8^post)) (= y_1094^0 y_1094^post)))
    (cfg_trans2 pc^0 l0 pc^post l2 (exists ( (Result_5^1 Int) ) (and (and (and (and (and (and (and (and (and (and (and (and (and (and (and (and (and (and (and (and (and (and (and (and (and (and (and (and (and (and (and (and (and (and (and (and (and (and (and (<= (+ 0 h_17^0) 0) (<= 0 (+ 0 h_17^0))) (= __cil_tmp5_20^post (+ 0 ret_18^0))) (= Result_5^1 (+ 0 __cil_tmp5_20^post))) (= Result_5^post Result_5^post)) (= __cil_tmp5_10^0 __cil_tmp5_10^post)) (= __cil_tmp5_15^0 __cil_tmp5_15^post)) (= __disjvr_0^0 __disjvr_0^post)) (= __disjvr_1^0 __disjvr_1^post)) (= __disjvr_2^0 __disjvr_2^post)) (= __disjvr_3^0 __disjvr_3^post)) (= a_6^0 a_6^post)) (= buffer_1077^0 buffer_1077^post)) (= buffer_1139^0 buffer_1139^post)) (= buffer_21^0 buffer_21^post)) (= buffer_35^0 buffer_35^post)) (= buffer_604^0 buffer_604^post)) (= cand_1104^0 cand_1104^post)) (= cand_19^0 cand_19^post)) (= d_7^0 d_7^post)) (= elem_13^0 elem_13^post)) (= h_17^0 h_17^post)) (= i_22^0 i_22^post)) (= l_11^0 l_11^post)) (= len_98^0 len_98^post)) (= lt_29^0 lt_29^post)) (= prev_14^0 prev_14^post)) (= ret_1103^0 ret_1103^post)) (= ret_18^0 ret_18^post)) (= sz_23^0 sz_23^post)) (= tmp_24^0 tmp_24^post)) (= tmp_9^0 tmp_9^post)) (= tmp___0_25^0 tmp___0_25^post)) (= tmp___0_36^0 tmp___0_36^post)) (= tmp___0_57^0 tmp___0_57^post)) (= tmp___0_605^0 tmp___0_605^post)) (= x_12^0 x_12^post)) (= x_16^0 x_16^post)) (= x_8^0 x_8^post)) (= y_1094^0 y_1094^post))))
    (cfg_trans2 pc^0 l3 pc^post l4 (and (and (and (and (and (and (and (and (and (and (and (and (and (and (and (and (and (and (and (and (and (and (and (and (and (and (and (and (and (and (and (and (and (and (and (and (= Result_5^0 Result_5^post) (= __cil_tmp5_10^0 __cil_tmp5_10^post)) (= __cil_tmp5_15^0 __cil_tmp5_15^post)) (= __cil_tmp5_20^0 __cil_tmp5_20^post)) (= __disjvr_0^0 __disjvr_0^post)) (= __disjvr_1^0 __disjvr_1^post)) (= __disjvr_2^0 __disjvr_2^post)) (= __disjvr_3^0 __disjvr_3^post)) (= a_6^0 a_6^post)) (= buffer_1077^0 buffer_1077^post)) (= buffer_1139^0 buffer_1139^post)) (= buffer_21^0 buffer_21^post)) (= buffer_35^0 buffer_35^post)) (= buffer_604^0 buffer_604^post)) (= cand_1104^0 cand_1104^post)) (= cand_19^0 cand_19^post)) (= d_7^0 d_7^post)) (= elem_13^0 elem_13^post)) (= h_17^0 h_17^post)) (= i_22^0 i_22^post)) (= l_11^0 l_11^post)) (= len_98^0 len_98^post)) (= lt_29^0 lt_29^post)) (= prev_14^0 prev_14^post)) (= ret_1103^0 ret_1103^post)) (= ret_18^0 ret_18^post)) (= sz_23^0 sz_23^post)) (= tmp_24^0 tmp_24^post)) (= tmp_9^0 tmp_9^post)) (= tmp___0_25^0 tmp___0_25^post)) (= tmp___0_36^0 tmp___0_36^post)) (= tmp___0_57^0 tmp___0_57^post)) (= tmp___0_605^0 tmp___0_605^post)) (= x_12^0 x_12^post)) (= x_16^0 x_16^post)) (= x_8^0 x_8^post)) (= y_1094^0 y_1094^post)))
    (cfg_trans2 pc^0 l5 pc^post l6 (exists ( (len_98^1 Int) ) (and (and (and (and (and (and (and (and (and (and (and (and (and (and (and (and (and (and (and (and (and (and (and (and (and (and (and (and (and (and (and (and (and (and (and (and (and (and (and (<= 0 (+ 0 len_98^0)) (= len_98^1 len_98^1)) (= tmp_9^post tmp_9^post)) (= x_8^post (+ 0 tmp_9^post))) (= __cil_tmp5_10^post (+ 0 x_8^post))) (= Result_5^post (+ 0 __cil_tmp5_10^post))) (<= 0 (+ 0 len_98^1))) (= len_98^post (+ 1 len_98^1))) (= buffer_21^post (+ 0 Result_5^post))) (= i_22^post (+ 1 i_22^0))) (= __cil_tmp5_15^0 __cil_tmp5_15^post)) (= __cil_tmp5_20^0 __cil_tmp5_20^post)) (= __disjvr_0^0 __disjvr_0^post)) (= __disjvr_1^0 __disjvr_1^post)) (= __disjvr_2^0 __disjvr_2^post)) (= __disjvr_3^0 __disjvr_3^post)) (= a_6^0 a_6^post)) (= buffer_1077^0 buffer_1077^post)) (= buffer_1139^0 buffer_1139^post)) (= buffer_35^0 buffer_35^post)) (= buffer_604^0 buffer_604^post)) (= cand_1104^0 cand_1104^post)) (= cand_19^0 cand_19^post)) (= d_7^0 d_7^post)) (= elem_13^0 elem_13^post)) (= h_17^0 h_17^post)) (= l_11^0 l_11^post)) (= lt_29^0 lt_29^post)) (= prev_14^0 prev_14^post)) (= ret_1103^0 ret_1103^post)) (= ret_18^0 ret_18^post)) (= sz_23^0 sz_23^post)) (= tmp_24^0 tmp_24^post)) (= tmp___0_25^0 tmp___0_25^post)) (= tmp___0_36^0 tmp___0_36^post)) (= tmp___0_57^0 tmp___0_57^post)) (= tmp___0_605^0 tmp___0_605^post)) (= x_12^0 x_12^post)) (= x_16^0 x_16^post)) (= y_1094^0 y_1094^post))))
    (cfg_trans2 pc^0 l4 pc^post l7 (and (and (and (and (and (and (and (and (and (and (and (and (and (and (and (and (and (and (and (and (and (and (and (and (and (and (and (and (and (and (and (and (and (and (and (and (and (<= 0 (+ -1 len_98^0)) (= len_98^post len_98^post)) (= elem_13^post (+ 0 l_11^0))) (= prev_14^post 0)) (= Result_5^0 Result_5^post)) (= __cil_tmp5_10^0 __cil_tmp5_10^post)) (= __cil_tmp5_15^0 __cil_tmp5_15^post)) (= __cil_tmp5_20^0 __cil_tmp5_20^post)) (= __disjvr_0^0 __disjvr_0^post)) (= __disjvr_1^0 __disjvr_1^post)) (= __disjvr_2^0 __disjvr_2^post)) (= __disjvr_3^0 __disjvr_3^post)) (= a_6^0 a_6^post)) (= buffer_1077^0 buffer_1077^post)) (= buffer_1139^0 buffer_1139^post)) (= buffer_21^0 buffer_21^post)) (= buffer_35^0 buffer_35^post)) (= buffer_604^0 buffer_604^post)) (= cand_1104^0 cand_1104^post)) (= cand_19^0 cand_19^post)) (= d_7^0 d_7^post)) (= h_17^0 h_17^post)) (= i_22^0 i_22^post)) (= l_11^0 l_11^post)) (= lt_29^0 lt_29^post)) (= ret_1103^0 ret_1103^post)) (= ret_18^0 ret_18^post)) (= sz_23^0 sz_23^post)) (= tmp_24^0 tmp_24^post)) (= tmp_9^0 tmp_9^post)) (= tmp___0_25^0 tmp___0_25^post)) (= tmp___0_36^0 tmp___0_36^post)) (= tmp___0_57^0 tmp___0_57^post)) (= tmp___0_605^0 tmp___0_605^post)) (= x_12^0 x_12^post)) (= x_16^0 x_16^post)) (= x_8^0 x_8^post)) (= y_1094^0 y_1094^post)))
    (cfg_trans2 pc^0 l4 pc^post l6 (and (and (and (and (and (and (and (and (and (and (and (and (and (and (and (and (and (and (and (and (and (and (and (and (and (and (and (and (and (and (and (and (and (and (and (and (= tmp___0_57^post tmp___0_57^post) (= tmp_9^post tmp_9^post)) (= x_8^post (+ 0 tmp_9^post))) (= __cil_tmp5_10^post (+ 0 x_8^post))) (= Result_5^post (+ 0 __cil_tmp5_10^post))) (= len_98^post (+ 0 i_22^0))) (= buffer_21^post (+ 0 Result_5^post))) (= i_22^post (+ 1 i_22^0))) (= __cil_tmp5_15^0 __cil_tmp5_15^post)) (= __cil_tmp5_20^0 __cil_tmp5_20^post)) (= __disjvr_0^0 __disjvr_0^post)) (= __disjvr_1^0 __disjvr_1^post)) (= __disjvr_2^0 __disjvr_2^post)) (= __disjvr_3^0 __disjvr_3^post)) (= a_6^0 a_6^post)) (= buffer_1077^0 buffer_1077^post)) (= buffer_1139^0 buffer_1139^post)) (= buffer_35^0 buffer_35^post)) (= buffer_604^0 buffer_604^post)) (= cand_1104^0 cand_1104^post)) (= cand_19^0 cand_19^post)) (= d_7^0 d_7^post)) (= elem_13^0 elem_13^post)) (= h_17^0 h_17^post)) (= l_11^0 l_11^post)) (= lt_29^0 lt_29^post)) (= prev_14^0 prev_14^post)) (= ret_1103^0 ret_1103^post)) (= ret_18^0 ret_18^post)) (= sz_23^0 sz_23^post)) (= tmp_24^0 tmp_24^post)) (= tmp___0_25^0 tmp___0_25^post)) (= tmp___0_36^0 tmp___0_36^post)) (= tmp___0_605^0 tmp___0_605^post)) (= x_12^0 x_12^post)) (= x_16^0 x_16^post)) (= y_1094^0 y_1094^post)))
    (cfg_trans2 pc^0 l4 pc^post l5 (and (and (and (and (and (and (and (and (and (and (and (and (and (and (and (and (and (and (and (and (and (and (and (and (and (and (and (and (and (and (and (and (and (and (and (and (= Result_5^0 Result_5^post) (= __cil_tmp5_10^0 __cil_tmp5_10^post)) (= __cil_tmp5_15^0 __cil_tmp5_15^post)) (= __cil_tmp5_20^0 __cil_tmp5_20^post)) (= __disjvr_0^0 __disjvr_0^post)) (= __disjvr_1^0 __disjvr_1^post)) (= __disjvr_2^0 __disjvr_2^post)) (= __disjvr_3^0 __disjvr_3^post)) (= a_6^0 a_6^post)) (= buffer_1077^0 buffer_1077^post)) (= buffer_1139^0 buffer_1139^post)) (= buffer_21^0 buffer_21^post)) (= buffer_35^0 buffer_35^post)) (= buffer_604^0 buffer_604^post)) (= cand_1104^0 cand_1104^post)) (= cand_19^0 cand_19^post)) (= d_7^0 d_7^post)) (= elem_13^0 elem_13^post)) (= h_17^0 h_17^post)) (= i_22^0 i_22^post)) (= l_11^0 l_11^post)) (= len_98^0 len_98^post)) (= lt_29^0 lt_29^post)) (= prev_14^0 prev_14^post)) (= ret_1103^0 ret_1103^post)) (= ret_18^0 ret_18^post)) (= sz_23^0 sz_23^post)) (= tmp_24^0 tmp_24^post)) (= tmp_9^0 tmp_9^post)) (= tmp___0_25^0 tmp___0_25^post)) (= tmp___0_36^0 tmp___0_36^post)) (= tmp___0_57^0 tmp___0_57^post)) (= tmp___0_605^0 tmp___0_605^post)) (= x_12^0 x_12^post)) (= x_16^0 x_16^post)) (= x_8^0 x_8^post)) (= y_1094^0 y_1094^post)))
    (cfg_trans2 pc^0 l7 pc^post l9 (and (and (and (and (and (and (and (and (and (and (and (and (and (and (and (and (and (and (and (and (and (and (and (and (and (and (and (and (and (and (and (and (and (and (and (and (and (and (and (<= 0 (+ -1 len_98^0)) (<= (+ 0 elem_13^0) 0)) (<= 0 (+ 0 elem_13^0))) (= Result_5^0 Result_5^post)) (= __cil_tmp5_10^0 __cil_tmp5_10^post)) (= __cil_tmp5_15^0 __cil_tmp5_15^post)) (= __cil_tmp5_20^0 __cil_tmp5_20^post)) (= __disjvr_0^0 __disjvr_0^post)) (= __disjvr_1^0 __disjvr_1^post)) (= __disjvr_2^0 __disjvr_2^post)) (= __disjvr_3^0 __disjvr_3^post)) (= a_6^0 a_6^post)) (= buffer_1077^0 buffer_1077^post)) (= buffer_1139^0 buffer_1139^post)) (= buffer_21^0 buffer_21^post)) (= buffer_35^0 buffer_35^post)) (= buffer_604^0 buffer_604^post)) (= cand_1104^0 cand_1104^post)) (= cand_19^0 cand_19^post)) (= d_7^0 d_7^post)) (= elem_13^0 elem_13^post)) (= h_17^0 h_17^post)) (= i_22^0 i_22^post)) (= l_11^0 l_11^post)) (= len_98^0 len_98^post)) (= lt_29^0 lt_29^post)) (= prev_14^0 prev_14^post)) (= ret_1103^0 ret_1103^post)) (= ret_18^0 ret_18^post)) (= sz_23^0 sz_23^post)) (= tmp_24^0 tmp_24^post)) (= tmp_9^0 tmp_9^post)) (= tmp___0_25^0 tmp___0_25^post)) (= tmp___0_36^0 tmp___0_36^post)) (= tmp___0_57^0 tmp___0_57^post)) (= tmp___0_605^0 tmp___0_605^post)) (= x_12^0 x_12^post)) (= x_16^0 x_16^post)) (= x_8^0 x_8^post)) (= y_1094^0 y_1094^post)))
    (cfg_trans2 pc^0 l9 pc^post l8 (and (and (and (and (and (and (and (and (and (and (and (and (and (and (and (and (and (and (and (and (and (and (and (and (and (and (and (and (and (and (and (and (and (and (and (and (and (= __disjvr_1^post __disjvr_1^0) (= Result_5^0 Result_5^post)) (= __cil_tmp5_10^0 __cil_tmp5_10^post)) (= __cil_tmp5_15^0 __cil_tmp5_15^post)) (= __cil_tmp5_20^0 __cil_tmp5_20^post)) (= __disjvr_0^0 __disjvr_0^post)) (= __disjvr_1^0 __disjvr_1^post)) (= __disjvr_2^0 __disjvr_2^post)) (= __disjvr_3^0 __disjvr_3^post)) (= a_6^0 a_6^post)) (= buffer_1077^0 buffer_1077^post)) (= buffer_1139^0 buffer_1139^post)) (= buffer_21^0 buffer_21^post)) (= buffer_35^0 buffer_35^post)) (= buffer_604^0 buffer_604^post)) (= cand_1104^0 cand_1104^post)) (= cand_19^0 cand_19^post)) (= d_7^0 d_7^post)) (= elem_13^0 elem_13^post)) (= h_17^0 h_17^post)) (= i_22^0 i_22^post)) (= l_11^0 l_11^post)) (= len_98^0 len_98^post)) (= lt_29^0 lt_29^post)) (= prev_14^0 prev_14^post)) (= ret_1103^0 ret_1103^post)) (= ret_18^0 ret_18^post)) (= sz_23^0 sz_23^post)) (= tmp_24^0 tmp_24^post)) (= tmp_9^0 tmp_9^post)) (= tmp___0_25^0 tmp___0_25^post)) (= tmp___0_36^0 tmp___0_36^post)) (= tmp___0_57^0 tmp___0_57^post)) (= tmp___0_605^0 tmp___0_605^post)) (= x_12^0 x_12^post)) (= x_16^0 x_16^post)) (= x_8^0 x_8^post)) (= y_1094^0 y_1094^post)))
    (cfg_trans2 pc^0 l7 pc^post l11 (and (and (and (and (and (and (and (and (and (and (and (and (and (and (and (and (and (and (and (and (and (and (and (and (and (and (and (and (and (and (and (and (and (and (and (and (and (<= 0 (+ -1 len_98^0)) (= Result_5^0 Result_5^post)) (= __cil_tmp5_10^0 __cil_tmp5_10^post)) (= __cil_tmp5_15^0 __cil_tmp5_15^post)) (= __cil_tmp5_20^0 __cil_tmp5_20^post)) (= __disjvr_0^0 __disjvr_0^post)) (= __disjvr_1^0 __disjvr_1^post)) (= __disjvr_2^0 __disjvr_2^post)) (= __disjvr_3^0 __disjvr_3^post)) (= a_6^0 a_6^post)) (= buffer_1077^0 buffer_1077^post)) (= buffer_1139^0 buffer_1139^post)) (= buffer_21^0 buffer_21^post)) (= buffer_35^0 buffer_35^post)) (= buffer_604^0 buffer_604^post)) (= cand_1104^0 cand_1104^post)) (= cand_19^0 cand_19^post)) (= d_7^0 d_7^post)) (= elem_13^0 elem_13^post)) (= h_17^0 h_17^post)) (= i_22^0 i_22^post)) (= l_11^0 l_11^post)) (= len_98^0 len_98^post)) (= lt_29^0 lt_29^post)) (= prev_14^0 prev_14^post)) (= ret_1103^0 ret_1103^post)) (= ret_18^0 ret_18^post)) (= sz_23^0 sz_23^post)) (= tmp_24^0 tmp_24^post)) (= tmp_9^0 tmp_9^post)) (= tmp___0_25^0 tmp___0_25^post)) (= tmp___0_36^0 tmp___0_36^post)) (= tmp___0_57^0 tmp___0_57^post)) (= tmp___0_605^0 tmp___0_605^post)) (= x_12^0 x_12^post)) (= x_16^0 x_16^post)) (= x_8^0 x_8^post)) (= y_1094^0 y_1094^post)))
    (cfg_trans2 pc^0 l11 pc^post l10 (and (and (and (and (and (and (and (and (and (and (and (and (and (and (and (and (and (and (and (and (and (and (and (and (and (and (and (and (and (and (and (and (and (and (and (and (and (= __disjvr_2^post __disjvr_2^0) (= Result_5^0 Result_5^post)) (= __cil_tmp5_10^0 __cil_tmp5_10^post)) (= __cil_tmp5_15^0 __cil_tmp5_15^post)) (= __cil_tmp5_20^0 __cil_tmp5_20^post)) (= __disjvr_0^0 __disjvr_0^post)) (= __disjvr_1^0 __disjvr_1^post)) (= __disjvr_2^0 __disjvr_2^post)) (= __disjvr_3^0 __disjvr_3^post)) (= a_6^0 a_6^post)) (= buffer_1077^0 buffer_1077^post)) (= buffer_1139^0 buffer_1139^post)) (= buffer_21^0 buffer_21^post)) (= buffer_35^0 buffer_35^post)) (= buffer_604^0 buffer_604^post)) (= cand_1104^0 cand_1104^post)) (= cand_19^0 cand_19^post)) (= d_7^0 d_7^post)) (= elem_13^0 elem_13^post)) (= h_17^0 h_17^post)) (= i_22^0 i_22^post)) (= l_11^0 l_11^post)) (= len_98^0 len_98^post)) (= lt_29^0 lt_29^post)) (= prev_14^0 prev_14^post)) (= ret_1103^0 ret_1103^post)) (= ret_18^0 ret_18^post)) (= sz_23^0 sz_23^post)) (= tmp_24^0 tmp_24^post)) (= tmp_9^0 tmp_9^post)) (= tmp___0_25^0 tmp___0_25^post)) (= tmp___0_36^0 tmp___0_36^post)) (= tmp___0_57^0 tmp___0_57^post)) (= tmp___0_605^0 tmp___0_605^post)) (= x_12^0 x_12^post)) (= x_16^0 x_16^post)) (= x_8^0 x_8^post)) (= y_1094^0 y_1094^post)))
    (cfg_trans2 pc^0 l7 pc^post l12 (and (and (and (and (and (and (and (and (and (and (and (and (and (and (and (and (and (and (and (and (and (and (and (and (and (and (and (and (and (and (and (and (and (and (and (and (and (and (and (and (and (<= 0 (+ -1 len_98^0)) (= len_98^post len_98^post)) (<= (+ 0 elem_13^0) 0)) (<= 0 (+ 0 elem_13^0))) (<= (+ 0 prev_14^0) 0)) (<= 0 (+ 0 prev_14^0))) (= l_11^post (+ 0 x_12^0))) (= __cil_tmp5_15^post (+ 0 l_11^post))) (= Result_5^post (+ 0 __cil_tmp5_15^post))) (= ret_18^post (+ 0 Result_5^post))) (= __cil_tmp5_10^0 __cil_tmp5_10^post)) (= __cil_tmp5_20^0 __cil_tmp5_20^post)) (= __disjvr_0^0 __disjvr_0^post)) (= __disjvr_1^0 __disjvr_1^post)) (= __disjvr_2^0 __disjvr_2^post)) (= __disjvr_3^0 __disjvr_3^post)) (= a_6^0 a_6^post)) (= buffer_1077^0 buffer_1077^post)) (= buffer_1139^0 buffer_1139^post)) (= buffer_21^0 buffer_21^post)) (= buffer_35^0 buffer_35^post)) (= buffer_604^0 buffer_604^post)) (= cand_1104^0 cand_1104^post)) (= cand_19^0 cand_19^post)) (= d_7^0 d_7^post)) (= elem_13^0 elem_13^post)) (= h_17^0 h_17^post)) (= i_22^0 i_22^post)) (= lt_29^0 lt_29^post)) (= prev_14^0 prev_14^post)) (= ret_1103^0 ret_1103^post)) (= sz_23^0 sz_23^post)) (= tmp_24^0 tmp_24^post)) (= tmp_9^0 tmp_9^post)) (= tmp___0_25^0 tmp___0_25^post)) (= tmp___0_36^0 tmp___0_36^post)) (= tmp___0_57^0 tmp___0_57^post)) (= tmp___0_605^0 tmp___0_605^post)) (= x_12^0 x_12^post)) (= x_16^0 x_16^post)) (= x_8^0 x_8^post)) (= y_1094^0 y_1094^post)))
    (cfg_trans2 pc^0 l13 pc^post l14 (and (and (and (and (and (and (and (and (and (and (and (and (and (and (and (and (and (and (and (and (and (and (and (and (and (and (and (and (and (and (and (and (and (and (and (and (= buffer_21^post 0) (= tmp_24^post tmp_24^post)) (= sz_23^post (+ 0 tmp_24^post))) (= i_22^post 0)) (= Result_5^0 Result_5^post)) (= __cil_tmp5_10^0 __cil_tmp5_10^post)) (= __cil_tmp5_15^0 __cil_tmp5_15^post)) (= __cil_tmp5_20^0 __cil_tmp5_20^post)) (= __disjvr_0^0 __disjvr_0^post)) (= __disjvr_1^0 __disjvr_1^post)) (= __disjvr_2^0 __disjvr_2^post)) (= __disjvr_3^0 __disjvr_3^post)) (= a_6^0 a_6^post)) (= buffer_1077^0 buffer_1077^post)) (= buffer_1139^0 buffer_1139^post)) (= buffer_35^0 buffer_35^post)) (= buffer_604^0 buffer_604^post)) (= cand_1104^0 cand_1104^post)) (= cand_19^0 cand_19^post)) (= d_7^0 d_7^post)) (= elem_13^0 elem_13^post)) (= h_17^0 h_17^post)) (= l_11^0 l_11^post)) (= len_98^0 len_98^post)) (= lt_29^0 lt_29^post)) (= prev_14^0 prev_14^post)) (= ret_1103^0 ret_1103^post)) (= ret_18^0 ret_18^post)) (= tmp_9^0 tmp_9^post)) (= tmp___0_25^0 tmp___0_25^post)) (= tmp___0_36^0 tmp___0_36^post)) (= tmp___0_57^0 tmp___0_57^post)) (= tmp___0_605^0 tmp___0_605^post)) (= x_12^0 x_12^post)) (= x_16^0 x_16^post)) (= x_8^0 x_8^post)) (= y_1094^0 y_1094^post)))
    (cfg_trans2 pc^0 l6 pc^post l15 (exists ( (len_98^1 Int) (len_98^2 Int) ) (and (and (and (and (and (and (and (and (and (and (and (and (and (and (and (and (and (and (and (and (and (and (and (and (and (and (and (and (and (and (and (and (and (and (and (and (and (and (and (and (and (<= 0 (+ 0 len_98^0)) (= len_98^1 len_98^1)) (<= (+ (+ 0 (* -1 i_22^0)) sz_23^0) 0)) (= x_16^post x_16^post)) (= i_22^post i_22^post)) (= sz_23^post sz_23^post)) (= tmp_24^post tmp_24^post)) (= len_98^2 len_98^2)) (= buffer_1077^post buffer_1077^post)) (<= 0 (+ 0 len_98^2))) (= len_98^post len_98^post)) (= h_17^post (+ 0 x_16^post))) (= ret_18^post 0)) (= Result_5^0 Result_5^post)) (= __cil_tmp5_10^0 __cil_tmp5_10^post)) (= __cil_tmp5_15^0 __cil_tmp5_15^post)) (= __cil_tmp5_20^0 __cil_tmp5_20^post)) (= __disjvr_0^0 __disjvr_0^post)) (= __disjvr_1^0 __disjvr_1^post)) (= __disjvr_2^0 __disjvr_2^post)) (= __disjvr_3^0 __disjvr_3^post)) (= a_6^0 a_6^post)) (= buffer_1139^0 buffer_1139^post)) (= buffer_21^0 buffer_21^post)) (= buffer_35^0 buffer_35^post)) (= buffer_604^0 buffer_604^post)) (= cand_1104^0 cand_1104^post)) (= cand_19^0 cand_19^post)) (= d_7^0 d_7^post)) (= elem_13^0 elem_13^post)) (= l_11^0 l_11^post)) (= lt_29^0 lt_29^post)) (= prev_14^0 prev_14^post)) (= ret_1103^0 ret_1103^post)) (= tmp_9^0 tmp_9^post)) (= tmp___0_25^0 tmp___0_25^post)) (= tmp___0_36^0 tmp___0_36^post)) (= tmp___0_57^0 tmp___0_57^post)) (= tmp___0_605^0 tmp___0_605^post)) (= x_12^0 x_12^post)) (= x_8^0 x_8^post)) (= y_1094^0 y_1094^post))))
    (cfg_trans2 pc^0 l6 pc^post l5 (exists ( (len_98^1 Int) ) (and (and (and (and (and (and (and (and (and (and (and (and (and (and (and (and (and (and (and (and (and (and (and (and (and (and (and (and (and (and (and (and (and (and (and (and (and (and (and (<= 0 (+ 0 len_98^0)) (= len_98^1 len_98^1)) (<= 0 (+ (+ -1 (* -1 i_22^0)) sz_23^0))) (= tmp___0_25^post tmp___0_25^post)) (= a_6^post a_6^post)) (= d_7^post d_7^post)) (= i_22^post i_22^post)) (= sz_23^post sz_23^post)) (= tmp_24^post tmp_24^post)) (= len_98^post len_98^post)) (= buffer_604^post buffer_604^post)) (= tmp___0_605^post tmp___0_605^post)) (= Result_5^0 Result_5^post)) (= __cil_tmp5_10^0 __cil_tmp5_10^post)) (= __cil_tmp5_15^0 __cil_tmp5_15^post)) (= __cil_tmp5_20^0 __cil_tmp5_20^post)) (= __disjvr_0^0 __disjvr_0^post)) (= __disjvr_1^0 __disjvr_1^post)) (= __disjvr_2^0 __disjvr_2^post)) (= __disjvr_3^0 __disjvr_3^post)) (= buffer_1077^0 buffer_1077^post)) (= buffer_1139^0 buffer_1139^post)) (= buffer_21^0 buffer_21^post)) (= buffer_35^0 buffer_35^post)) (= cand_1104^0 cand_1104^post)) (= cand_19^0 cand_19^post)) (= elem_13^0 elem_13^post)) (= h_17^0 h_17^post)) (= l_11^0 l_11^post)) (= lt_29^0 lt_29^post)) (= prev_14^0 prev_14^post)) (= ret_1103^0 ret_1103^post)) (= ret_18^0 ret_18^post)) (= tmp_9^0 tmp_9^post)) (= tmp___0_36^0 tmp___0_36^post)) (= tmp___0_57^0 tmp___0_57^post)) (= x_12^0 x_12^post)) (= x_16^0 x_16^post)) (= x_8^0 x_8^post)) (= y_1094^0 y_1094^post))))
    (cfg_trans2 pc^0 l14 pc^post l0 (and (and (and (and (and (and (and (and (and (and (and (and (and (and (and (and (and (and (and (and (and (and (and (and (and (and (and (and (and (and (and (and (and (and (and (and (and (<= (+ (+ 0 (* -1 i_22^0)) sz_23^0) 0) (= x_16^post x_16^post)) (= i_22^post i_22^post)) (= sz_23^post sz_23^post)) (= tmp_24^post tmp_24^post)) (= buffer_1139^post buffer_1139^post)) (= h_17^post (+ 0 x_16^post))) (= ret_18^post 0)) (= Result_5^0 Result_5^post)) (= __cil_tmp5_10^0 __cil_tmp5_10^post)) (= __cil_tmp5_15^0 __cil_tmp5_15^post)) (= __cil_tmp5_20^0 __cil_tmp5_20^post)) (= __disjvr_0^0 __disjvr_0^post)) (= __disjvr_1^0 __disjvr_1^post)) (= __disjvr_2^0 __disjvr_2^post)) (= __disjvr_3^0 __disjvr_3^post)) (= a_6^0 a_6^post)) (= buffer_1077^0 buffer_1077^post)) (= buffer_21^0 buffer_21^post)) (= buffer_35^0 buffer_35^post)) (= buffer_604^0 buffer_604^post)) (= cand_1104^0 cand_1104^post)) (= cand_19^0 cand_19^post)) (= d_7^0 d_7^post)) (= elem_13^0 elem_13^post)) (= l_11^0 l_11^post)) (= len_98^0 len_98^post)) (= lt_29^0 lt_29^post)) (= prev_14^0 prev_14^post)) (= ret_1103^0 ret_1103^post)) (= tmp_9^0 tmp_9^post)) (= tmp___0_25^0 tmp___0_25^post)) (= tmp___0_36^0 tmp___0_36^post)) (= tmp___0_57^0 tmp___0_57^post)) (= tmp___0_605^0 tmp___0_605^post)) (= x_12^0 x_12^post)) (= x_8^0 x_8^post)) (= y_1094^0 y_1094^post)))
    (cfg_trans2 pc^0 l14 pc^post l6 (exists ( (i_22^1 Int) ) (and (and (and (and (and (and (and (and (and (and (and (and (and (and (and (and (and (and (and (and (and (and (and (and (and (and (and (and (and (and (and (and (and (and (and (and (and (and (<= 0 (+ (+ -1 (* -1 i_22^0)) sz_23^0)) (= tmp___0_25^post tmp___0_25^post)) (= a_6^post a_6^post)) (= d_7^post d_7^post)) (= i_22^1 i_22^1)) (= sz_23^post sz_23^post)) (= tmp_24^post tmp_24^post)) (= buffer_35^post buffer_35^post)) (= tmp___0_36^post tmp___0_36^post)) (= tmp_9^post tmp_9^post)) (= x_8^post (+ 0 tmp_9^post))) (= __cil_tmp5_10^post (+ 0 x_8^post))) (= Result_5^post (+ 0 __cil_tmp5_10^post))) (= len_98^post (+ 0 i_22^1))) (= buffer_21^post (+ 0 Result_5^post))) (= i_22^post (+ 1 i_22^1))) (= __cil_tmp5_15^0 __cil_tmp5_15^post)) (= __cil_tmp5_20^0 __cil_tmp5_20^post)) (= __disjvr_0^0 __disjvr_0^post)) (= __disjvr_1^0 __disjvr_1^post)) (= __disjvr_2^0 __disjvr_2^post)) (= __disjvr_3^0 __disjvr_3^post)) (= buffer_1077^0 buffer_1077^post)) (= buffer_1139^0 buffer_1139^post)) (= buffer_604^0 buffer_604^post)) (= cand_1104^0 cand_1104^post)) (= cand_19^0 cand_19^post)) (= elem_13^0 elem_13^post)) (= h_17^0 h_17^post)) (= l_11^0 l_11^post)) (= lt_29^0 lt_29^post)) (= prev_14^0 prev_14^post)) (= ret_1103^0 ret_1103^post)) (= ret_18^0 ret_18^post)) (= tmp___0_57^0 tmp___0_57^post)) (= tmp___0_605^0 tmp___0_605^post)) (= x_12^0 x_12^post)) (= x_16^0 x_16^post)) (= y_1094^0 y_1094^post))))
    (cfg_trans2 pc^0 l15 pc^post l16 (and (and (and (and (and (and (and (and (and (and (and (and (and (and (and (and (and (and (and (and (and (and (and (and (and (and (and (and (and (and (and (and (and (and (and (and (and (and (and (<= 0 (+ 0 len_98^0)) (<= (+ 0 h_17^0) 0)) (<= 0 (+ 0 h_17^0))) (= Result_5^0 Result_5^post)) (= __cil_tmp5_10^0 __cil_tmp5_10^post)) (= __cil_tmp5_15^0 __cil_tmp5_15^post)) (= __cil_tmp5_20^0 __cil_tmp5_20^post)) (= __disjvr_0^0 __disjvr_0^post)) (= __disjvr_1^0 __disjvr_1^post)) (= __disjvr_2^0 __disjvr_2^post)) (= __disjvr_3^0 __disjvr_3^post)) (= a_6^0 a_6^post)) (= buffer_1077^0 buffer_1077^post)) (= buffer_1139^0 buffer_1139^post)) (= buffer_21^0 buffer_21^post)) (= buffer_35^0 buffer_35^post)) (= buffer_604^0 buffer_604^post)) (= cand_1104^0 cand_1104^post)) (= cand_19^0 cand_19^post)) (= d_7^0 d_7^post)) (= elem_13^0 elem_13^post)) (= h_17^0 h_17^post)) (= i_22^0 i_22^post)) (= l_11^0 l_11^post)) (= len_98^0 len_98^post)) (= lt_29^0 lt_29^post)) (= prev_14^0 prev_14^post)) (= ret_1103^0 ret_1103^post)) (= ret_18^0 ret_18^post)) (= sz_23^0 sz_23^post)) (= tmp_24^0 tmp_24^post)) (= tmp_9^0 tmp_9^post)) (= tmp___0_25^0 tmp___0_25^post)) (= tmp___0_36^0 tmp___0_36^post)) (= tmp___0_57^0 tmp___0_57^post)) (= tmp___0_605^0 tmp___0_605^post)) (= x_12^0 x_12^post)) (= x_16^0 x_16^post)) (= x_8^0 x_8^post)) (= y_1094^0 y_1094^post)))
    (cfg_trans2 pc^0 l15 pc^post l17 (and (and (and (and (and (and (and (and (and (and (and (and (and (and (and (and (and (and (and (and (and (and (and (and (and (and (and (and (and (and (and (and (and (and (and (and (and (<= 0 (+ 0 len_98^0)) (= len_98^post len_98^post)) (= Result_5^0 Result_5^post)) (= __cil_tmp5_10^0 __cil_tmp5_10^post)) (= __cil_tmp5_15^0 __cil_tmp5_15^post)) (= __cil_tmp5_20^0 __cil_tmp5_20^post)) (= __disjvr_0^0 __disjvr_0^post)) (= __disjvr_1^0 __disjvr_1^post)) (= __disjvr_2^0 __disjvr_2^post)) (= __disjvr_3^0 __disjvr_3^post)) (= a_6^0 a_6^post)) (= buffer_1077^0 buffer_1077^post)) (= buffer_1139^0 buffer_1139^post)) (= buffer_21^0 buffer_21^post)) (= buffer_35^0 buffer_35^post)) (= buffer_604^0 buffer_604^post)) (= cand_1104^0 cand_1104^post)) (= cand_19^0 cand_19^post)) (= d_7^0 d_7^post)) (= elem_13^0 elem_13^post)) (= h_17^0 h_17^post)) (= i_22^0 i_22^post)) (= l_11^0 l_11^post)) (= lt_29^0 lt_29^post)) (= prev_14^0 prev_14^post)) (= ret_1103^0 ret_1103^post)) (= ret_18^0 ret_18^post)) (= sz_23^0 sz_23^post)) (= tmp_24^0 tmp_24^post)) (= tmp_9^0 tmp_9^post)) (= tmp___0_25^0 tmp___0_25^post)) (= tmp___0_36^0 tmp___0_36^post)) (= tmp___0_57^0 tmp___0_57^post)) (= tmp___0_605^0 tmp___0_605^post)) (= x_12^0 x_12^post)) (= x_16^0 x_16^post)) (= x_8^0 x_8^post)) (= y_1094^0 y_1094^post)))
    (cfg_trans2 pc^0 l17 pc^post l18 (and (and (and (and (and (and (and (and (and (and (and (and (and (and (and (and (and (and (and (and (and (and (and (and (and (and (and (and (and (and (and (and (and (and (and (and (and (= __disjvr_3^post __disjvr_3^0) (= Result_5^0 Result_5^post)) (= __cil_tmp5_10^0 __cil_tmp5_10^post)) (= __cil_tmp5_15^0 __cil_tmp5_15^post)) (= __cil_tmp5_20^0 __cil_tmp5_20^post)) (= __disjvr_0^0 __disjvr_0^post)) (= __disjvr_1^0 __disjvr_1^post)) (= __disjvr_2^0 __disjvr_2^post)) (= __disjvr_3^0 __disjvr_3^post)) (= a_6^0 a_6^post)) (= buffer_1077^0 buffer_1077^post)) (= buffer_1139^0 buffer_1139^post)) (= buffer_21^0 buffer_21^post)) (= buffer_35^0 buffer_35^post)) (= buffer_604^0 buffer_604^post)) (= cand_1104^0 cand_1104^post)) (= cand_19^0 cand_19^post)) (= d_7^0 d_7^post)) (= elem_13^0 elem_13^post)) (= h_17^0 h_17^post)) (= i_22^0 i_22^post)) (= l_11^0 l_11^post)) (= len_98^0 len_98^post)) (= lt_29^0 lt_29^post)) (= prev_14^0 prev_14^post)) (= ret_1103^0 ret_1103^post)) (= ret_18^0 ret_18^post)) (= sz_23^0 sz_23^post)) (= tmp_24^0 tmp_24^post)) (= tmp_9^0 tmp_9^post)) (= tmp___0_25^0 tmp___0_25^post)) (= tmp___0_36^0 tmp___0_36^post)) (= tmp___0_57^0 tmp___0_57^post)) (= tmp___0_605^0 tmp___0_605^post)) (= x_12^0 x_12^post)) (= x_16^0 x_16^post)) (= x_8^0 x_8^post)) (= y_1094^0 y_1094^post)))
    (cfg_trans2 pc^0 l18 pc^post l4 (exists ( (h_17^1 Int) (lt_29^1 Int) ) (and (and (and (and (and (and (and (and (and (and (and (and (and (and (and (and (and (and (and (and (and (and (and (and (and (and (and (and (and (and (and (and (and (and (and (and (and (and (= cand_19^post (+ 0 h_17^0)) (= lt_29^1 (+ 0 y_1094^0))) (= h_17^1 (+ 0 lt_29^1))) (= lt_29^post lt_29^post)) (= l_11^post l_11^post)) (= x_12^post x_12^post)) (= x_16^post x_16^post)) (= h_17^post h_17^post)) (= buffer_21^post buffer_21^post)) (= i_22^post i_22^post)) (= sz_23^post sz_23^post)) (= tmp_24^post tmp_24^post)) (= len_98^post len_98^post)) (= ret_1103^post ret_1103^post)) (= cand_1104^post cand_1104^post)) (= Result_5^0 Result_5^post)) (= __cil_tmp5_10^0 __cil_tmp5_10^post)) (= __cil_tmp5_15^0 __cil_tmp5_15^post)) (= __cil_tmp5_20^0 __cil_tmp5_20^post)) (= __disjvr_0^0 __disjvr_0^post)) (= __disjvr_1^0 __disjvr_1^post)) (= __disjvr_2^0 __disjvr_2^post)) (= __disjvr_3^0 __disjvr_3^post)) (= a_6^0 a_6^post)) (= buffer_1077^0 buffer_1077^post)) (= buffer_1139^0 buffer_1139^post)) (= buffer_35^0 buffer_35^post)) (= buffer_604^0 buffer_604^post)) (= d_7^0 d_7^post)) (= elem_13^0 elem_13^post)) (= prev_14^0 prev_14^post)) (= ret_18^0 ret_18^post)) (= tmp_9^0 tmp_9^post)) (= tmp___0_25^0 tmp___0_25^post)) (= tmp___0_36^0 tmp___0_36^post)) (= tmp___0_57^0 tmp___0_57^post)) (= tmp___0_605^0 tmp___0_605^post)) (= x_8^0 x_8^post)) (= y_1094^0 y_1094^post))))
    (cfg_trans2 pc^0 l19 pc^post l3 (and (and (and (and (and (and (and (and (and (and (and (and (and (and (and (and (and (and (and (and (and (and (and (and (and (and (and (and (and (and (and (and (and (and (and (and (= Result_5^0 Result_5^post) (= __cil_tmp5_10^0 __cil_tmp5_10^post)) (= __cil_tmp5_15^0 __cil_tmp5_15^post)) (= __cil_tmp5_20^0 __cil_tmp5_20^post)) (= __disjvr_0^0 __disjvr_0^post)) (= __disjvr_1^0 __disjvr_1^post)) (= __disjvr_2^0 __disjvr_2^post)) (= __disjvr_3^0 __disjvr_3^post)) (= a_6^0 a_6^post)) (= buffer_1077^0 buffer_1077^post)) (= buffer_1139^0 buffer_1139^post)) (= buffer_21^0 buffer_21^post)) (= buffer_35^0 buffer_35^post)) (= buffer_604^0 buffer_604^post)) (= cand_1104^0 cand_1104^post)) (= cand_19^0 cand_19^post)) (= d_7^0 d_7^post)) (= elem_13^0 elem_13^post)) (= h_17^0 h_17^post)) (= i_22^0 i_22^post)) (= l_11^0 l_11^post)) (= len_98^0 len_98^post)) (= lt_29^0 lt_29^post)) (= prev_14^0 prev_14^post)) (= ret_1103^0 ret_1103^post)) (= ret_18^0 ret_18^post)) (= sz_23^0 sz_23^post)) (= tmp_24^0 tmp_24^post)) (= tmp_9^0 tmp_9^post)) (= tmp___0_25^0 tmp___0_25^post)) (= tmp___0_36^0 tmp___0_36^post)) (= tmp___0_57^0 tmp___0_57^post)) (= tmp___0_605^0 tmp___0_605^post)) (= x_12^0 x_12^post)) (= x_16^0 x_16^post)) (= x_8^0 x_8^post)) (= y_1094^0 y_1094^post)))
  )
)
